\* BinPacking-Mathematical *\
Minimize
OBJ: y_0 + y_1 + y_2 + y_3 + y_4 + y_5
Subject To
_C1: x_(0,_0) + x_(0,_1) + x_(0,_2) + x_(0,_3) + x_(0,_4) + x_(0,_5) = 1
_C10: 4 x_(0,_3) + 8 x_(1,_3) + x_(2,_3) + 4 x_(3,_3) + 2 x_(4,_3) + x_(5,_3)
 - 10 y_3 <= 0
_C11: 4 x_(0,_4) + 8 x_(1,_4) + x_(2,_4) + 4 x_(3,_4) + 2 x_(4,_4) + x_(5,_4)
 - 10 y_4 <= 0
_C12: 4 x_(0,_5) + 8 x_(1,_5) + x_(2,_5) + 4 x_(3,_5) + 2 x_(4,_5) + x_(5,_5)
 - 10 y_5 <= 0
_C2: x_(1,_0) + x_(1,_1) + x_(1,_2) + x_(1,_3) + x_(1,_4) + x_(1,_5) = 1
_C3: x_(2,_0) + x_(2,_1) + x_(2,_2) + x_(2,_3) + x_(2,_4) + x_(2,_5) = 1
_C4: x_(3,_0) + x_(3,_1) + x_(3,_2) + x_(3,_3) + x_(3,_4) + x_(3,_5) = 1
_C5: x_(4,_0) + x_(4,_1) + x_(4,_2) + x_(4,_3) + x_(4,_4) + x_(4,_5) = 1
_C6: x_(5,_0) + x_(5,_1) + x_(5,_2) + x_(5,_3) + x_(5,_4) + x_(5,_5) = 1
_C7: 4 x_(0,_0) + 8 x_(1,_0) + x_(2,_0) + 4 x_(3,_0) + 2 x_(4,_0) + x_(5,_0)
 - 10 y_0 <= 0
_C8: 4 x_(0,_1) + 8 x_(1,_1) + x_(2,_1) + 4 x_(3,_1) + 2 x_(4,_1) + x_(5,_1)
 - 10 y_1 <= 0
_C9: 4 x_(0,_2) + 8 x_(1,_2) + x_(2,_2) + 4 x_(3,_2) + 2 x_(4,_2) + x_(5,_2)
 - 10 y_2 <= 0
Binaries
x_(0,_0)
x_(0,_1)
x_(0,_2)
x_(0,_3)
x_(0,_4)
x_(0,_5)
x_(1,_0)
x_(1,_1)
x_(1,_2)
x_(1,_3)
x_(1,_4)
x_(1,_5)
x_(2,_0)
x_(2,_1)
x_(2,_2)
x_(2,_3)
x_(2,_4)
x_(2,_5)
x_(3,_0)
x_(3,_1)
x_(3,_2)
x_(3,_3)
x_(3,_4)
x_(3,_5)
x_(4,_0)
x_(4,_1)
x_(4,_2)
x_(4,_3)
x_(4,_4)
x_(4,_5)
x_(5,_0)
x_(5,_1)
x_(5,_2)
x_(5,_3)
x_(5,_4)
x_(5,_5)
y_0
y_1
y_2
y_3
y_4
y_5
End
